bus123.lp
Minimize
 + xt_14 + yt_14 + xt_15 + yt_15 + xt_16 + yt_16 -  w_l_17 + xt_17 + yt_17 + xt_27 + yt_27 + xt_28 + yt_28 + xt_29 + yt_29 -  w_r_30 -  w_l_30 + xt_30 + yt_30 -  w_r_42 + xt_42 + yt_42 -  w_r_43 -  w_l_43 + xt_43 + yt_43 -  w_r_44 + xt_44 + yt_44 + xt_47 + yt_47 -  w_l_48 + xt_48 + yt_48 + xt_49 + yt_49 -  w_l_50 + xt_50 + yt_50 -  w_r_51 + xt_51 + yt_51 -  w_l_74 + xt_74 + yt_74 -  w_l_75 + xt_75 + yt_75 + xt_76 + yt_76 -  w_l_77 + xt_77 + yt_77 + xt_78 + yt_78 + xt_90 + yt_90 + xt_91 + yt_91 + xt_92 + yt_92 -  w_r_93 -  w_l_93 + xt_93 + yt_93 -  w_r_116 + xt_116 + yt_116 -  w_r_117 -  w_l_117 + xt_117 + yt_117 + xt_121 + yt_121 + xt_122 + yt_122 -  w_r_123 + xt_123 + yt_123 -  w_r_124 + xt_124 + yt_124 -  w_r_125 -  w_l_125 + xt_125 + yt_125 -  w_l_136 + xt_136 + yt_136 + xt_137 + yt_137 -  w_r_138 -  w_l_138 + xt_138 + yt_138 -  w_r_139 -  w_l_139 + xt_139 + yt_139 + xt_168 + yt_168 -  w_r_169 -  w_l_169 + xt_169 + yt_169 -  w_l_170 + xt_170 + yt_170 -  w_l_171 + xt_171 + yt_171 + xt_172 + yt_172 + xt_173 + yt_173 -  w_l_183 + xt_183 + yt_183 -  w_r_184 -  w_l_184 + xt_184 + yt_184 -  w_r_185 + xt_185 + yt_185 -  w_l_186 + xt_186 + yt_186 -  w_l_187 + xt_187 + yt_187 + xt_193 + yt_193 + xt_194 + yt_194 + xt_195 + yt_195 -  w_r_196 + xt_196 + yt_196

Subject To
x_14 - xt_14 <= 161.485
x_14 + xt_14 >= 161.485
y_14 - yt_14 <= 135.55
y_14 + yt_14 >= 135.55
x_15 - xt_15 <= 165.36
x_15 + xt_15 >= 165.36
y_15 - yt_15 <= 135.55
y_15 + yt_15 >= 135.55
1 y_16 + 1 x_16  <= 307.101
x_16 - xt_16 <= 169.885
x_16 + xt_16 >= 169.885
y_16 - yt_16 <= 136.525
y_16 + yt_16 >= 136.525
0 y_17 + 1 x_17  >= 172.026
1 y_17 + 0 x_17  - w_l_17 >= 137.38
1 y_17 + 0 x_17  - w_l_17 >= 137.441
1 y_17 + 0 x_17  - w_l_17 >= 137.441
x_17 - xt_17 <= 172.185
x_17 + xt_17 >= 172.185
y_17 - yt_17 <= 137.5
y_17 + yt_17 >= 137.5
x_27 - xt_27 <= 161.485
x_27 + xt_27 >= 161.485
y_27 - yt_27 <= 141.25
y_27 + yt_27 >= 141.25
x_28 - xt_28 <= 162.585
x_28 + xt_28 >= 162.585
y_28 - yt_28 <= 141.25
y_28 + yt_28 >= 141.25
x_29 - xt_29 <= 166.635
x_29 + xt_29 >= 166.635
y_29 - yt_29 <= 137.975
y_29 + yt_29 >= 137.975
1 y_30 + -1 x_30  <= -35.3635
1 y_30 + 1 x_30  + w_r_30 <= 304.902
1 y_30 + 1 x_30  - w_l_30 >= 304.344
x_30 - xt_30 <= 170.11
x_30 + xt_30 >= 170.11
y_30 - yt_30 <= 134.5
y_30 + yt_30 >= 134.5
1 y_42 + -1 x_42  + w_r_42 <= -23.5739
1 y_42 + -1 x_42  + w_r_42 <= -21.6689
1 y_42 + -1 x_42  + w_r_42 <= -22.6214
1 y_42 + -1 x_42  + w_r_42 <= -24.4064
1 y_42 + -1 x_42  + w_r_42 <= -24.3692
1 y_42 + -0 x_42  <= 138.42
1 y_42 + -1 x_42  + w_r_42 <= -24.5264
x_42 - xt_42 <= 163.06
x_42 + xt_42 >= 163.06
y_42 - yt_42 <= 138.4
y_42 + yt_42 >= 138.4
1 y_43 + 0 x_43  - w_l_43 >= 140.258
1 y_43 + 0 x_43  - w_l_43 >= 140.258
1 y_43 + -1 x_43  <= -28.0814
1 y_43 + -0 x_43  + w_r_43 <= 140.346
1 y_43 + 0 x_43  - w_l_43 >= 140.295
x_43 - xt_43 <= 168.635
x_43 + xt_43 >= 168.635
y_43 - yt_43 <= 140.3
y_43 + yt_43 >= 140.3
1 y_44 + 1 x_44  + w_r_44 <= 312.902
1 y_44 + -0 x_44  <= 139.72
1 y_44 + 1 x_44  + w_r_44 <= 313.701
x_44 - xt_44 <= 172.91
x_44 + xt_44 >= 172.91
y_44 - yt_44 <= 139.7
y_44 + yt_44 >= 139.7
x_47 - xt_47 <= 161.31
x_47 + xt_47 >= 161.31
y_47 - yt_47 <= 142.25
y_47 + yt_47 >= 142.25
1 y_48 + 1 x_48  - w_l_48 >= 303.266
x_48 - xt_48 <= 161.635
x_48 + xt_48 >= 161.635
y_48 - yt_48 <= 142.075
y_48 + yt_48 >= 142.075
x_49 - xt_49 <= 164.66
x_49 + xt_49 >= 164.66
y_49 - yt_49 <= 141.9
y_49 + yt_49 >= 141.9
1 y_50 + 1 x_50  - w_l_50 >= 308.719
x_50 - xt_50 <= 169.91
x_50 + xt_50 >= 169.91
y_50 - yt_50 <= 139.5
y_50 + yt_50 >= 139.5
1 y_51 + -0 x_51  <= 136.62
1 y_51 + 1 x_51  + w_r_51 <= 310.502
1 y_51 + 1 x_51  + w_r_51 <= 309.702
x_51 - xt_51 <= 172.91
x_51 + xt_51 >= 172.91
y_51 - yt_51 <= 136.5
y_51 + yt_51 >= 136.5
1 y_74 + -1 x_74  - w_l_74 >= -32.3061
x_74 - xt_74 <= 156.16
x_74 + xt_74 >= 156.16
y_74 - yt_74 <= 124
y_74 + yt_74 >= 124
1 y_75 + -1 x_75  - w_l_75 >= -33.7136
x_75 - xt_75 <= 158.26
x_75 + xt_75 >= 158.26
y_75 - yt_75 <= 126.1
y_75 + yt_75 >= 126.1
1 y_76 + -1 x_76  >= -38.5636
1 y_76 + -1 x_76  >= -36.2136
x_76 - xt_76 <= 162.66
x_76 + xt_76 >= 162.66
y_76 - yt_76 <= 127.9
y_76 + yt_76 >= 127.9
1 y_77 + -1 x_77  - w_l_77 >= -41.2008
1 y_77 + -1 x_77  - w_l_77 >= -38.8508
x_77 - xt_77 <= 166.985
x_77 + xt_77 >= 166.985
y_77 - yt_77 <= 129.625
y_77 + yt_77 >= 129.625
x_78 - xt_78 <= 168.71
x_78 + xt_78 >= 168.71
y_78 - yt_78 <= 131.625
y_78 + yt_78 >= 131.625
x_90 - xt_90 <= 161.485
x_90 + xt_90 >= 161.485
y_90 - yt_90 <= 129.85
y_90 + yt_90 >= 129.85
x_91 - xt_91 <= 167.035
x_91 + xt_91 >= 167.035
y_91 - yt_91 <= 129.85
y_91 + yt_91 >= 129.85
x_92 - xt_92 <= 173.485
x_92 + xt_92 >= 173.485
y_92 - yt_92 <= 131.075
y_92 + yt_92 >= 131.075
1 y_93 + 0 x_93  >= 132.38
1 y_93 + -1 x_93  - w_l_93 >= -42.6285
1 y_93 + -1 x_93  - w_l_93 >= -42.6285
1 y_93 + 1 x_93  >= 307.144
1 y_93 + -1 x_93  + w_r_93 <= -42.1636
x_93 - xt_93 <= 174.91
x_93 + xt_93 >= 174.91
y_93 - yt_93 <= 132.5
y_93 + yt_93 >= 132.5
1 y_116 + 0 x_116  + w_r_116 <= 127.97
1 y_116 + -0 x_116  + w_r_116 <= 127.996
1 y_116 + 0 x_116  + w_r_116 <= 127.97
x_116 - xt_116 <= 166.56
x_116 + xt_116 >= 166.56
y_116 - yt_116 <= 127.95
y_116 + yt_116 >= 127.95
1 y_117 + -1 x_117  + w_r_117 <= -41.9692
1 y_117 + -1 x_117  - w_l_117 >= -44.2702
x_117 - xt_117 <= 172.735
x_117 + xt_117 >= 172.735
y_117 - yt_117 <= 128.725
y_117 + yt_117 >= 128.725
x_121 - xt_121 <= 161.485
x_121 + xt_121 >= 161.485
y_121 - yt_121 <= 123.2
y_121 + yt_121 >= 123.2
x_122 - xt_122 <= 163.285
x_122 + xt_122 >= 163.285
y_122 - yt_122 <= 123.2
y_122 + yt_122 >= 123.2
1 y_123 + -1 x_123  + w_r_123 <= -37.7564
1 y_123 + -0.999999 x_123  + w_r_123 <= -37.7191
1 y_123 + -1 x_123  + w_r_123 <= -39.5692
x_123 - xt_123 <= 167.71
x_123 + xt_123 >= 167.71
y_123 - yt_123 <= 126.15
y_123 + yt_123 >= 126.15
1 y_124 + -1 x_124  >= -41.8386
0 y_124 + 1 x_124  + w_r_124 <= 170.806
1 y_124 + 1 x_124  <= 300.089
1 y_124 + 1 x_124  >= 299.658
x_124 - xt_124 <= 170.66
x_124 + xt_124 >= 170.66
y_124 - yt_124 <= 129.125
y_124 + yt_124 >= 129.125
1 y_125 + -1 x_125  >= -41.5508
0 y_125 + 1 x_125  <= 170.605
1 y_125 + 1 x_125  + w_r_125 <= 300.151
1 y_125 + 1 x_125  - w_l_125 >= 299.595
x_125 - xt_125 <= 170.485
x_125 + xt_125 >= 170.485
y_125 - yt_125 <= 129.325
y_125 + yt_125 >= 129.325
1 y_136 + -1 x_136  - w_l_136 >= -34.2111
x_136 - xt_136 <= 158.31
x_136 + xt_136 >= 158.31
y_136 - yt_136 <= 124.2
y_136 + yt_136 >= 124.2
1 y_137 + -1 x_137  <= -35.1064
x_137 - xt_137 <= 161.36
x_137 + xt_137 >= 161.36
y_137 - yt_137 <= 124.7
y_137 + yt_137 >= 124.7
1 y_138 + -1 x_138  + w_r_138 <= -37.7564
1 y_138 + -0.999999 x_138  + w_r_138 <= -37.7191
1 y_138 + -1 x_138  - w_l_138 >= -41.2008
x_138 - xt_138 <= 166.91
x_138 + xt_138 >= 166.91
y_138 - yt_138 <= 127.7
y_138 + yt_138 >= 127.7
1 y_139 + -1 x_139  <= -39.3635
1 y_139 + 1 x_139  - w_l_139 >= 300.344
1 y_139 + 1 x_139  + w_r_139 <= 300.902
x_139 - xt_139 <= 170.11
x_139 + xt_139 >= 170.11
y_139 - yt_139 <= 130.5
y_139 + yt_139 >= 130.5
1 y_168 + -1 x_168  >= -24.1136
x_168 - xt_168 <= 161.31
x_168 + xt_168 >= 161.31
y_168 - yt_168 <= 137.45
y_168 + yt_168 >= 137.45
1 y_169 + -1 x_169  + w_r_169 <= -23.5739
1 y_169 + -1 x_169  + w_r_169 <= -21.6689
1 y_169 + -1 x_169  - w_l_169 >= -24.3008
0 y_169 + 1 x_169  <= 163.105
1 y_169 + -1 x_169  + w_r_169 <= -22.6214
x_169 - xt_169 <= 163.035
x_169 + xt_169 >= 163.035
y_169 - yt_169 <= 139.025
y_169 + yt_169 >= 139.025
1 y_170 + -0 x_170  - w_l_170 >= 140.58
1 y_170 + 0 x_170  - w_l_170 >= 140.554
1 y_170 + 0 x_170  - w_l_170 >= 140.58
x_170 - xt_170 <= 169.035
x_170 + xt_170 >= 169.035
y_170 - yt_170 <= 140.6
y_170 + yt_170 >= 140.6
1 y_171 + 1 x_171  - w_l_171 >= 312.969
1 y_171 + 1 x_171  - w_l_171 >= 313.944
x_171 - xt_171 <= 173.735
x_171 + xt_171 >= 173.735
y_171 - yt_171 <= 140.325
y_171 + yt_171 >= 140.325
0 y_172 + 1 x_172  >= 173.976
x_172 - xt_172 <= 174.085
x_172 + xt_172 >= 174.085
y_172 - yt_172 <= 140.05
y_172 + yt_172 >= 140.05
x_173 - xt_173 <= 174.235
x_173 + xt_173 >= 174.235
y_173 - yt_173 <= 139.975
y_173 + yt_173 >= 139.975
1 y_183 + 0 x_183  >= 128.555
1 y_183 + 1 x_183  - w_l_183 >= 289.931
x_183 - xt_183 <= 161.485
x_183 + xt_183 >= 161.485
y_183 - yt_183 <= 128.575
y_183 + yt_183 >= 128.575
1 y_184 + -0 x_184  + w_r_184 <= 128.322
1 y_184 + -0 x_184  + w_r_184 <= 128.322
1 y_184 + 0 x_184  - w_l_184 >= 128.204
0 y_184 + 1 x_184  >= 166.009
1 y_184 + -0 x_184  + w_r_184 <= 128.285
x_184 - xt_184 <= 166.16
x_184 + xt_184 >= 166.16
y_184 - yt_184 <= 128.25
y_184 + yt_184 >= 128.25
1 y_185 + 0 x_185  >= 128.505
1 y_185 + -0 x_185  <= 128.545
1 y_185 + 0 x_185  <= 128.568
1 y_185 + -1 x_185  + w_r_185 <= -42.0415
1 y_185 + -1 x_185  + w_r_185 <= -42.0415
1 y_185 + -1 x_185  + w_r_185 <= -42.2153
x_185 - xt_185 <= 170.785
x_185 + xt_185 >= 170.785
y_185 - yt_185 <= 128.525
y_185 + yt_185 >= 128.525
0 y_186 + 1 x_186  - w_l_186 >= 170.914
0 y_186 + 1 x_186  - w_l_186 >= 170.94
0 y_186 + 1 x_186  - w_l_186 >= 171.001
0 y_186 + 1 x_186  - w_l_186 >= 171.001
x_186 - xt_186 <= 171.06
x_186 + xt_186 >= 171.06
y_186 - yt_186 <= 129.125
y_186 + yt_186 >= 129.125
1 y_187 + -1 x_187  - w_l_187 >= -43.6508
1 y_187 + -1 x_187  - w_l_187 >= -43.522
1 y_187 + 1 x_187  >= 302.656
1 y_187 + 1 x_187  >= 302.619
1 y_187 + 1 x_187  >= 302.692
1 y_187 + 1 x_187  >= 302.692
1 y_187 + -1 x_187  - w_l_187 >= -42.7219
1 y_187 + -1 x_187  - w_l_187 >= -41.9218
x_187 - xt_187 <= 172.285
x_187 + xt_187 >= 172.285
y_187 - yt_187 <= 130.675
y_187 + yt_187 >= 130.675
x_193 - xt_193 <= 161.485
x_193 + xt_193 >= 161.485
y_193 - yt_193 <= 130.8
y_193 + yt_193 >= 130.8
x_194 - xt_194 <= 162.36
x_194 + xt_194 >= 162.36
y_194 - yt_194 <= 131.35
y_194 + yt_194 >= 131.35
x_195 - xt_195 <= 168.96
x_195 + xt_195 >= 168.96
y_195 - yt_195 <= 131.9
y_195 + yt_195 >= 131.9
1 y_196 + 0 x_196  + w_r_196 <= 132.02
1 y_196 + -0 x_196  + w_r_196 <= 131.96
x_196 - xt_196 <= 174.66
x_196 + xt_196 >= 174.66
y_196 - yt_196 <= 131.9
y_196 + yt_196 >= 131.9
 + 7.874 w_l_17 <= 12.5687
 + 7.874 w_r_30 + 7.874 w_l_30 <= 12.5687
 + 7.874 w_r_42 + 7.874 w_r_43 + 7.874 w_l_43 + 7.874 w_r_44 <= 13.5687
 + 7.874 w_l_48 + 7.874 w_l_50 + 7.874 w_r_51 <= 11.5687
 + 7.874 w_l_74 + 7.874 w_l_75 + 7.874 w_l_77 <= 11.5687
 + 7.874 w_r_93 + 7.874 w_l_93 <= 12.5687
 + 7.874 w_r_116 + 7.874 w_r_117 + 7.874 w_l_117 <= 14.5687
 + 7.874 w_r_123 + 7.874 w_r_124 + 7.874 w_r_125 + 7.874 w_l_125 <= 11.5687
 + 7.874 w_l_136 + 7.874 w_r_138 + 7.874 w_l_138 + 7.874 w_r_139 + 7.874 w_l_139 <= 12.5687
 + 7.874 w_r_169 + 7.874 w_l_169 + 7.874 w_l_170 + 7.874 w_l_171 <= 10.5687
 + 7.874 w_l_183 + 7.874 w_r_184 + 7.874 w_l_184 + 7.874 w_r_185 + 7.874 w_l_186 + 7.874 w_l_187 <= 11.5687
 + 7.874 w_r_196 <= 12.5687

Bounds
x_14 >= 0
y_14 >= 0
x_15 >= 0
y_15 >= 0
x_16 >= 0
y_16 >= 0
x_17 >= 0
y_17 >= 0
w_l_17 >= 0
w_l_17 >= 0
w_l_17 >= 0
x_27 >= 0
y_27 >= 0
x_28 >= 0
y_28 >= 0
x_29 >= 0
y_29 >= 0
x_30 >= 0
y_30 >= 0
w_r_30 >= 0
w_l_30 >= 0
x_42 >= 0
y_42 >= 0
w_r_42 >= 0
w_r_42 >= 0
w_r_42 >= 0
w_r_42 >= 0
w_r_42 >= 0
w_r_42 >= 0
x_43 >= 0
y_43 >= 0
w_l_43 >= 0
w_l_43 >= 0
w_r_43 >= 0
w_l_43 >= 0
x_44 >= 0
y_44 >= 0
w_r_44 >= 0
w_r_44 >= 0
x_47 >= 0
y_47 >= 0
x_48 >= 0
y_48 >= 0
w_l_48 >= 0
x_49 >= 0
y_49 >= 0
x_50 >= 0
y_50 >= 0
w_l_50 >= 0
x_51 >= 0
y_51 >= 0
w_r_51 >= 0
w_r_51 >= 0
x_74 >= 0
y_74 >= 0
w_l_74 >= 0
x_75 >= 0
y_75 >= 0
w_l_75 >= 0
x_76 >= 0
y_76 >= 0
x_77 >= 0
y_77 >= 0
w_l_77 >= 0
w_l_77 >= 0
x_78 >= 0
y_78 >= 0
x_90 >= 0
y_90 >= 0
x_91 >= 0
y_91 >= 0
x_92 >= 0
y_92 >= 0
x_93 >= 0
y_93 >= 0
w_l_93 >= 0
w_l_93 >= 0
w_r_93 >= 0
x_116 >= 0
y_116 >= 0
w_r_116 >= 0
w_r_116 >= 0
w_r_116 >= 0
x_117 >= 0
y_117 >= 0
w_r_117 >= 0
w_l_117 >= 0
x_121 >= 0
y_121 >= 0
x_122 >= 0
y_122 >= 0
x_123 >= 0
y_123 >= 0
w_r_123 >= 0
w_r_123 >= 0
w_r_123 >= 0
x_124 >= 0
y_124 >= 0
w_r_124 >= 0
x_125 >= 0
y_125 >= 0
w_r_125 >= 0
w_l_125 >= 0
x_136 >= 0
y_136 >= 0
w_l_136 >= 0
x_137 >= 0
y_137 >= 0
x_138 >= 0
y_138 >= 0
w_r_138 >= 0
w_r_138 >= 0
w_l_138 >= 0
x_139 >= 0
y_139 >= 0
w_l_139 >= 0
w_r_139 >= 0
x_168 >= 0
y_168 >= 0
x_169 >= 0
y_169 >= 0
w_r_169 >= 0
w_r_169 >= 0
w_l_169 >= 0
w_r_169 >= 0
x_170 >= 0
y_170 >= 0
w_l_170 >= 0
w_l_170 >= 0
w_l_170 >= 0
x_171 >= 0
y_171 >= 0
w_l_171 >= 0
w_l_171 >= 0
x_172 >= 0
y_172 >= 0
x_173 >= 0
y_173 >= 0
x_183 >= 0
y_183 >= 0
w_l_183 >= 0
x_184 >= 0
y_184 >= 0
w_r_184 >= 0
w_r_184 >= 0
w_l_184 >= 0
w_r_184 >= 0
x_185 >= 0
y_185 >= 0
w_r_185 >= 0
w_r_185 >= 0
w_r_185 >= 0
x_186 >= 0
y_186 >= 0
w_l_186 >= 0
w_l_186 >= 0
w_l_186 >= 0
w_l_186 >= 0
x_187 >= 0
y_187 >= 0
w_l_187 >= 0
w_l_187 >= 0
w_l_187 >= 0
w_l_187 >= 0
x_193 >= 0
y_193 >= 0
x_194 >= 0
y_194 >= 0
x_195 >= 0
y_195 >= 0
x_196 >= 0
y_196 >= 0
w_r_196 >= 0
w_r_196 >= 0
End
