bus123.lp.sol
xt_14 0
yt_14 0
xt_15 0
yt_15 0
xt_16 0
yt_16 0
w_l_17 1.59623
xt_17 0
yt_17 1.53723
xt_27 0
yt_27 0
xt_28 0
yt_28 0
xt_29 0
yt_29 0
w_r_30 1.59623
xt_30 0.541864
yt_30 0.807864
xt_42 0
yt_42 0
w_r_43 0.046
w_l_43 0.005
xt_43 0
yt_43 0
xt_44 0
yt_44 0
xt_47 0
yt_47 0
xt_48 0
yt_48 0
xt_49 0
yt_49 0
xt_50 0
yt_50 0
xt_51 0
yt_51 0
xt_74 0
yt_74 0
xt_75 0
yt_75 0
w_l_76 1.46923
xt_76 0.0156278
yt_76 0
xt_77 0
yt_77 0
xt_78 0
yt_78 0
xt_90 0
yt_90 0
xt_91 0
yt_91 0
xt_92 0
yt_92 0
w_l_93 0.266
xt_93 0
yt_93 0
w_r_116 1.85023
xt_116 0
yt_116 1.83023
xt_117 0
yt_117 0
xt_121 0
yt_121 0
xt_122 0
yt_122 0
xt_123 0
yt_123 0
w_r_124 0.273
xt_124 0.127
yt_124 0
w_l_125 0.3908
xt_125 0
yt_125 0
xt_136 0
yt_136 0
xt_137 0
yt_137 0
xt_138 0
yt_138 0
w_r_139 0.5125
xt_139 0
yt_139 0.266
xt_168 0
yt_168 0
xt_169 0
yt_169 0
w_l_170 1.34223
xt_170 0
yt_170 1.32223
xt_171 0
yt_171 0
xt_172 0
yt_172 0
xt_173 0
yt_173 0
xt_183 0
yt_183 0
w_r_184 0.035
w_l_184 0.046
xt_184 0
yt_184 0
xt_185 0
yt_185 0
w_l_186 0.059
xt_186 0
yt_186 0
w_l_187 0.268
xt_187 0
yt_187 0
xt_193 0
yt_193 0
xt_194 0
yt_194 0
xt_195 0
yt_195 0
w_r_196 1.59623
xt_196 0
yt_196 1.53623
x_14 161.485
y_14 135.55
x_15 165.36
y_15 135.55
y_16 136.525
x_16 169.885
y_17 139.037
x_17 172.185
x_27 161.485
y_27 141.25
x_28 162.585
y_28 141.25
x_29 166.635
y_29 137.975
y_30 133.692
x_30 170.652
y_42 138.4
x_42 163.06
y_43 140.3
x_43 168.635
y_44 139.7
x_44 172.91
x_47 161.31
y_47 142.25
y_48 142.075
x_48 161.635
x_49 164.66
y_49 141.9
y_50 139.5
x_50 169.91
y_51 136.5
x_51 172.91
y_74 124
x_74 156.16
y_75 126.1
x_75 158.26
y_76 127.9
x_76 162.644
y_77 129.625
x_77 166.985
x_78 168.71
y_78 131.625
x_90 161.485
y_90 129.85
x_91 167.035
y_91 129.85
x_92 173.485
y_92 131.075
y_93 132.5
x_93 174.91
y_116 126.12
x_116 166.56
y_117 128.725
x_117 172.735
x_121 161.485
y_121 123.2
x_122 163.285
y_122 123.2
y_123 126.15
x_123 167.71
y_124 129.125
x_124 170.533
y_125 129.325
x_125 170.485
y_136 124.2
x_136 158.31
y_137 124.7
x_137 161.36
y_138 127.7
x_138 166.91
y_139 130.234
x_139 170.11
y_168 137.45
x_168 161.31
y_169 139.025
x_169 163.035
y_170 141.922
x_170 169.035
y_171 140.325
x_171 173.735
y_172 140.05
x_172 174.085
x_173 174.235
y_173 139.975
y_183 128.575
x_183 161.485
y_184 128.25
x_184 166.16
y_185 128.525
x_185 170.785
y_186 129.125
x_186 171.06
y_187 130.675
x_187 172.285
x_193 161.485
y_193 130.8
x_194 162.36
y_194 131.35
x_195 168.96
y_195 131.9
y_196 130.364
x_196 174.66
